unsat
(forall ((A (_ BitVec 1))
         (B (_ BitVec 1))
         (C (_ BitVec 1))
         (D (_ BitVec 1))
         (E (_ BitVec 1))
         (F (_ BitVec 32))
         (G (_ BitVec 1))
         (H (_ BitVec 1))
         (I (_ BitVec 32))
         (J (_ BitVec 1))
         (K (_ BitVec 1))
         (L (_ BitVec 22))
         (M (_ BitVec 1))
         (N (_ BitVec 2))
         (O (_ BitVec 1))
         (P (_ BitVec 6))
         (Q (_ BitVec 1))
         (R (_ BitVec 1))
         (S (_ BitVec 1))
         (T (_ BitVec 1))
         (U (_ BitVec 34))
         (V (_ BitVec 6))
         (W (_ BitVec 1))
         (X (_ BitVec 1))
         (Y (_ BitVec 1))
         (Z (_ BitVec 2))
         (A1 (_ BitVec 6))
         (B1 (_ BitVec 1))
         (C1 (_ BitVec 2))
         (D1 (_ BitVec 1))
         (E1 (_ BitVec 1))
         (F1 (_ BitVec 1))
         (G1 (_ BitVec 1))
         (H1 (_ BitVec 1))
         (I1 (_ BitVec 1))
         (J1 (_ BitVec 1))
         (K1 (_ BitVec 1))
         (L1 (_ BitVec 22))
         (M1 (_ BitVec 10))
         (N1 (_ BitVec 3))
         (O1 (_ BitVec 1))
         (P1 (_ BitVec 1))
         (Q1 (_ BitVec 1))
         (R1 (_ BitVec 1))
         (S1 (_ BitVec 1))
         (T1 (_ BitVec 32))
         (U1 (_ BitVec 1))
         (V1 (_ BitVec 1))
         (W1 (_ BitVec 1))
         (X1 (_ BitVec 1))
         (Y1 (_ BitVec 32))
         (Z1 (_ BitVec 1))
         (A2 (_ BitVec 2))
         (B2 (_ BitVec 1))
         (C2 (_ BitVec 22))
         (D2 (_ BitVec 1)))
  (! (let ((a!1 (ite (= O #b1)
                     (= ((_ extract 0 0) M1) #b0)
                     (= ((_ extract 1 1) M1) #b0)))
           (a!2 (and (or (= O #b1) (= A1 #b000000))
                     (not (= ((_ extract 5 1) A1) #b00000))))
           (a!3 (or (= ((_ extract 1 1) Z) #b1)
                    (not (= F1 #b0))
                    (not ((_ bit2bool 0) Q1))
                    (not (= ((_ extract 1 1) N1) #b1))
                    (not (= B1 #b0)))))
     (let ((a!4 (or ((_ bit2bool 0) E1)
                    (not (= B1 #b0))
                    (not (= ((_ extract 1 1) Z) #b1))
                    a!1)))
     (let ((a!5 (and (or (= ((_ extract 1 1) M1) #b0) (= A1 #b001000))
                     (or (not (= G #b1)) (not (= J #b0)))
                     (not (= D1 #b1))
                     (or (not (= Q1 #b0)) ((_ bit2bool 0) B1) (= G #b0))
                     (or (not ((_ bit2bool 4) A1)) (not (= Q1 #b0)))
                     (or (= N1 #b000) (not (= O #b1)))
                     (or ((_ bit2bool 0) S1)
                         (not (= W #b0))
                         (not (= Y #b1))
                         (not (= Q1 #b0)))
                     (or (= S #b1) (= G1 #b1) (= Z #b00) (not (= F1 #b1)))
                     (or (not (= J #b0))
                         (not (= Q1 #b0))
                         ((_ bit2bool 0) S1)
                         (not (= Y #b1)))
                     (or (not (= K1 #b1)) (= ((_ extract 2 2) N1) #b1))
                     (or (= N1 #b000)
                         (not (= F1 #b0))
                         (not (= G1 #b1))
                         (not ((_ bit2bool 0) Q1))
                         (not (= X1 #b1))
                         (not (= B1 #b0)))
                     (or (not (= F1 #b0))
                         (not (= K #b0))
                         (not (= W #b0))
                         (not (= Q #b1))
                         (= ((_ extract 0 0) Z) #b1))
                     (or (not (= N1 #b001)) (not (= H1 #b0)))
                     (or (= Z #b00)
                         (not (= F1 #b1))
                         ((_ bit2bool 0) E1)
                         a!1
                         a!2)
                     (or (not (= Z #b10)) a!1 a!2)
                     (or (= A1 #b000000) (not (= K1 #b1)))
                     (or (not ((_ bit2bool 0) G1)) (= G #b0))
                     (or (not (= G #b1)) (not (= F1 #b1)))
                     (or (not ((_ bit2bool 1) M1)) (not (= Q1 #b0)))
                     (or (= N1 #b000)
                         (= Z #b00)
                         (not (= J #b0))
                         (not ((_ bit2bool 0) Q1))
                         (not (= B1 #b0)))
                     (or (= S #b1) (= Z #b00) (not (= J #b0)) (not (= F1 #b1)))
                     a!3
                     (or (= G1 #b1) (not (= F1 #b1)) (not ((_ bit2bool 11) T1)))
                     a!4
                     (or (= G1 #b1)
                         (not (= Z #b10))
                         (not (= J #b0))
                         (not ((_ bit2bool 1) M1))
                         (= V P))
                     (or (not ((_ bit2bool 0) M1)) (not (= Q1 #b0)))
                     (or (not (= J #b0)) (not (= B1 #b0)) a!1)
                     (or (not ((_ bit2bool 0) X)) (not ((_ bit2bool 1) M1)))
                     (or (not (= S #b1)) (not ((_ bit2bool 0) M1)))
                     (or (not (= S #b1)) a!1)
                     (or (not ((_ bit2bool 0) M1)) (not (= B1 #b0)) (= G1 #b1))
                     (or (= H1 #b0) (not (= O #b1)))
                     (or (not ((_ bit2bool 1) M1)) (not (= B1 #b0)))
                     (or (= X #b1) (not (= I1 #b0)))
                     (or (not ((_ bit2bool 0) M1)) (= A1 #b001001)))))
       (= (INV!slice!1 A
                       B
                       C
                       D
                       E
                       F
                       G
                       H
                       I
                       J
                       K
                       L
                       M
                       N
                       O
                       P
                       Q
                       R
                       S
                       T
                       U
                       V
                       W
                       X
                       Y
                       Z
                       A1
                       B1
                       C1
                       D1
                       E1
                       F1
                       G1
                       H1
                       I1
                       J1
                       K1
                       L1
                       M1
                       N1
                       O1
                       P1
                       Q1
                       R1
                       S1
                       T1
                       U1
                       V1
                       W1
                       X1
                       Y1
                       Z1
                       A2
                       B2
                       C2
                       D2)
          a!5))))
     :weight 0))
